NAME : in_house_8_9
TYPE : TSP
DIMENSION : 8
EDGE_WEIGHT_TYPE : EXPLICIT
EDGE_WEIGHT_FORMAT : UPPER_ROW
COMMENT : INVERSION_SHIFT=2
EDGE_WEIGHT_SECTION
2
1
45
8
39
32
59
20
14
5
42
50
15
8
13
41
15
34
63
36
34
55
4
2
12
20
9
17
